Iteration #1
Total number of hole bits is 227
Sketch file is conga_equivalent_5_canonicalizer_equivalent_1_pair_stateless_alu_1_5_codegen_iteration_1.sk
Synthesis succeeded with 2 bits, proceeding to verification.
Verification failed.
Use returned counterexamples {'pkt_3': 4, 'pkt_1': 0, 'pkt_0': 1, 'pkt_2': 0, 'pkt_4': 0} {'state_group_0_state_0': 5, 'state_group_0_state_1': 0}
Iteration #2
Total number of hole bits is 252
Sketch file is conga_equivalent_5_canonicalizer_equivalent_1_pair_stateless_alu_1_5_codegen_iteration_2.sk
Synthesis succeeded with 2 bits, proceeding to verification.
conga_equivalent_5_canonicalizer_equivalent_1_pair_stateless_alu_1_5_verify_iter_2.sk passed syntax check. 
Failed to generate counterexamples, z3 returned unsat
Compilation succeeded. Hole value assignments are following:
int conga_equivalent_5_canonicalizer_equivalent_1_pair_stateless_alu_1_5_stateful_alu_0_0_Mux3_1_global = 3
int conga_equivalent_5_canonicalizer_equivalent_1_pair_stateless_alu_1_5_stateful_alu_0_0_const_4_global = 0
int conga_equivalent_5_canonicalizer_equivalent_1_pair_stateless_alu_1_5_stateful_alu_0_0_const_0_global = 0
int conga_equivalent_5_canonicalizer_equivalent_1_pair_stateless_alu_1_5_stateless_alu_0_4_mux2_ctrl = 6
int conga_equivalent_5_canonicalizer_equivalent_1_pair_stateless_alu_1_5_stateful_alu_0_0_const_12_global = 0
int conga_equivalent_5_canonicalizer_equivalent_1_pair_stateless_alu_1_5_stateful_alu_0_0_Mux3_0_global = 1
int conga_equivalent_5_canonicalizer_equivalent_1_pair_stateless_alu_1_5_stateful_alu_0_0_const_8_global = 0
int conga_equivalent_5_canonicalizer_equivalent_1_pair_stateless_alu_1_5_stateful_alu_0_0_Mux3_4_global = 3
int conga_equivalent_5_canonicalizer_equivalent_1_pair_stateless_alu_1_5_stateful_alu_0_0_Mux3_16_global = 1
int conga_equivalent_5_canonicalizer_equivalent_1_pair_stateless_alu_1_5_stateful_alu_0_0_arith_op_3_global = 0
int conga_equivalent_5_canonicalizer_equivalent_1_pair_stateless_alu_1_5_stateless_alu_0_4_immediate = 0
int conga_equivalent_5_canonicalizer_equivalent_1_pair_stateless_alu_1_5_stateful_alu_0_0_const_1_global = 0
int conga_equivalent_5_canonicalizer_equivalent_1_pair_stateless_alu_1_5_output_mux_phv_0_2_ctrl = 3
int conga_equivalent_5_canonicalizer_equivalent_1_pair_stateless_alu_1_5_stateful_operand_mux_0_0_1_ctrl = 3
int conga_equivalent_5_canonicalizer_equivalent_1_pair_stateless_alu_1_5_stateful_alu_0_0_rel_op_1_global = 2
int conga_equivalent_5_canonicalizer_equivalent_1_pair_stateless_alu_1_5_stateful_alu_0_0_Opt_4_global = 1
int conga_equivalent_5_canonicalizer_equivalent_1_pair_stateless_alu_1_5_stateful_alu_0_0_Mux3_21_global = 1
int conga_equivalent_5_canonicalizer_equivalent_1_pair_stateless_alu_1_5_stateful_alu_0_0_rel_op_0_global = 3
int conga_equivalent_5_canonicalizer_equivalent_1_pair_stateless_alu_1_5_stateful_alu_0_0_Opt_0_global = 1
int conga_equivalent_5_canonicalizer_equivalent_1_pair_stateless_alu_1_5_stateless_alu_0_1_mux2_ctrl = 2
int conga_equivalent_5_canonicalizer_equivalent_1_pair_stateless_alu_1_5_stateful_alu_0_0_Mux3_10_global = 2
int conga_equivalent_5_canonicalizer_equivalent_1_pair_stateless_alu_1_5_stateless_alu_0_0_immediate = 0
int conga_equivalent_5_canonicalizer_equivalent_1_pair_stateless_alu_1_5_stateful_alu_0_0_const_11_global = 3
int conga_equivalent_5_canonicalizer_equivalent_1_pair_stateless_alu_1_5_stateful_alu_0_0_Mux3_2_global = 0
int conga_equivalent_5_canonicalizer_equivalent_1_pair_stateless_alu_1_5_salu_config_0_0 = 1
int conga_equivalent_5_canonicalizer_equivalent_1_pair_stateless_alu_1_5_stateless_alu_0_3_mux1_ctrl = 3
int conga_equivalent_5_canonicalizer_equivalent_1_pair_stateless_alu_1_5_stateful_alu_0_0_const_9_global = 1
int conga_equivalent_5_canonicalizer_equivalent_1_pair_stateless_alu_1_5_stateful_alu_0_0_const_16_global = 0
int conga_equivalent_5_canonicalizer_equivalent_1_pair_stateless_alu_1_5_stateful_alu_0_0_const_14_global = 5
int conga_equivalent_5_canonicalizer_equivalent_1_pair_stateless_alu_1_5_stateful_alu_0_0_arith_op_2_global = 0
int conga_equivalent_5_canonicalizer_equivalent_1_pair_stateless_alu_1_5_stateful_operand_mux_0_0_2_ctrl = 0
int conga_equivalent_5_canonicalizer_equivalent_1_pair_stateless_alu_1_5_stateful_alu_0_0_Mux3_22_global = 0
int conga_equivalent_5_canonicalizer_equivalent_1_pair_stateless_alu_1_5_output_mux_phv_0_1_ctrl = 2
int conga_equivalent_5_canonicalizer_equivalent_1_pair_stateless_alu_1_5_stateful_alu_0_0_Opt_2_global = 1
int conga_equivalent_5_canonicalizer_equivalent_1_pair_stateless_alu_1_5_stateful_alu_0_0_Mux3_23_global = 2
int conga_equivalent_5_canonicalizer_equivalent_1_pair_stateless_alu_1_5_stateless_alu_0_2_immediate = 0
int conga_equivalent_5_canonicalizer_equivalent_1_pair_stateless_alu_1_5_stateful_alu_0_0_rel_op_2_global = 2
int conga_equivalent_5_canonicalizer_equivalent_1_pair_stateless_alu_1_5_stateless_alu_0_1_mux3_ctrl = 3
int conga_equivalent_5_canonicalizer_equivalent_1_pair_stateless_alu_1_5_stateless_alu_0_3_mux3_ctrl = 4
int conga_equivalent_5_canonicalizer_equivalent_1_pair_stateless_alu_1_5_stateless_alu_0_0_mux1_ctrl = 0
int conga_equivalent_5_canonicalizer_equivalent_1_pair_stateless_alu_1_5_stateless_alu_0_4_mux1_ctrl = 2
int conga_equivalent_5_canonicalizer_equivalent_1_pair_stateless_alu_1_5_stateful_alu_0_0_Opt_5_global = 1
int conga_equivalent_5_canonicalizer_equivalent_1_pair_stateless_alu_1_5_stateful_operand_mux_0_0_4_ctrl = 0
int conga_equivalent_5_canonicalizer_equivalent_1_pair_stateless_alu_1_5_stateful_alu_0_0_Mux3_24_global = 2
int conga_equivalent_5_canonicalizer_equivalent_1_pair_stateless_alu_1_5_stateful_alu_0_0_Mux3_9_global = 1
int conga_equivalent_5_canonicalizer_equivalent_1_pair_stateless_alu_1_5_stateful_alu_0_0_arith_op_1_global = 0
int conga_equivalent_5_canonicalizer_equivalent_1_pair_stateless_alu_1_5_stateful_alu_0_0_arith_op_5_global = 1
int conga_equivalent_5_canonicalizer_equivalent_1_pair_stateless_alu_1_5_stateful_alu_0_0_Mux3_26_global = 0
int conga_equivalent_5_canonicalizer_equivalent_1_pair_stateless_alu_1_5_stateless_alu_0_3_mux2_ctrl = 6
int conga_equivalent_5_canonicalizer_equivalent_1_pair_stateless_alu_1_5_stateful_alu_0_0_const_10_global = 0
int conga_equivalent_5_canonicalizer_equivalent_1_pair_stateless_alu_1_5_stateful_alu_0_0_const_19_global = 0
int conga_equivalent_5_canonicalizer_equivalent_1_pair_stateless_alu_1_5_stateless_alu_0_2_mux2_ctrl = 7
int conga_equivalent_5_canonicalizer_equivalent_1_pair_stateless_alu_1_5_stateless_alu_0_3_immediate = 0
int conga_equivalent_5_canonicalizer_equivalent_1_pair_stateless_alu_1_5_output_mux_phv_0_3_ctrl = 2
int conga_equivalent_5_canonicalizer_equivalent_1_pair_stateless_alu_1_5_stateful_alu_0_0_Opt_3_global = 1
int conga_equivalent_5_canonicalizer_equivalent_1_pair_stateless_alu_1_5_stateless_alu_0_4_mux3_ctrl = 7
int conga_equivalent_5_canonicalizer_equivalent_1_pair_stateless_alu_1_5_stateful_alu_0_0_Mux3_7_global = 0
int conga_equivalent_5_canonicalizer_equivalent_1_pair_stateless_alu_1_5_stateful_alu_0_0_Opt_7_global = 1
int conga_equivalent_5_canonicalizer_equivalent_1_pair_stateless_alu_1_5_stateful_alu_0_0_Opt_1_global = 1
int conga_equivalent_5_canonicalizer_equivalent_1_pair_stateless_alu_1_5_stateful_alu_0_0_arith_op_4_global = 0
int conga_equivalent_5_canonicalizer_equivalent_1_pair_stateless_alu_1_5_stateful_alu_0_0_output_mux_global = 0
int conga_equivalent_5_canonicalizer_equivalent_1_pair_stateless_alu_1_5_stateless_alu_0_2_mux1_ctrl = 0
int conga_equivalent_5_canonicalizer_equivalent_1_pair_stateless_alu_1_5_stateful_alu_0_0_Mux3_18_global = 0
int conga_equivalent_5_canonicalizer_equivalent_1_pair_stateless_alu_1_5_stateful_alu_0_0_const_7_global = 2
int conga_equivalent_5_canonicalizer_equivalent_1_pair_stateless_alu_1_5_stateless_alu_0_4_opcode = 14
int conga_equivalent_5_canonicalizer_equivalent_1_pair_stateless_alu_1_5_stateless_alu_0_0_mux2_ctrl = 0
int conga_equivalent_5_canonicalizer_equivalent_1_pair_stateless_alu_1_5_stateless_alu_0_1_immediate = 0
int conga_equivalent_5_canonicalizer_equivalent_1_pair_stateless_alu_1_5_stateful_alu_0_0_arith_op_0_global = 0
int conga_equivalent_5_canonicalizer_equivalent_1_pair_stateless_alu_1_5_stateful_alu_0_0_Mux3_13_global = 0
int conga_equivalent_5_canonicalizer_equivalent_1_pair_stateless_alu_1_5_stateful_alu_0_0_Mux3_14_global = 0
int conga_equivalent_5_canonicalizer_equivalent_1_pair_stateless_alu_1_5_stateful_alu_0_0_Mux3_8_global = 3
int conga_equivalent_5_canonicalizer_equivalent_1_pair_stateless_alu_1_5_stateful_alu_0_0_Mux3_20_global = 3
int conga_equivalent_5_canonicalizer_equivalent_1_pair_stateless_alu_1_5_stateful_alu_0_0_Mux3_15_global = 2
int conga_equivalent_5_canonicalizer_equivalent_1_pair_stateless_alu_1_5_stateful_alu_0_0_const_2_global = 0
int conga_equivalent_5_canonicalizer_equivalent_1_pair_stateless_alu_1_5_stateful_alu_0_0_Mux3_19_global = 0
int conga_equivalent_5_canonicalizer_equivalent_1_pair_stateless_alu_1_5_output_mux_phv_0_4_ctrl = 3
int conga_equivalent_5_canonicalizer_equivalent_1_pair_stateless_alu_1_5_stateless_alu_0_3_opcode = 4
int conga_equivalent_5_canonicalizer_equivalent_1_pair_stateless_alu_1_5_stateful_alu_0_0_Mux3_27_global = 3
int conga_equivalent_5_canonicalizer_equivalent_1_pair_stateless_alu_1_5_stateful_alu_0_0_Mux3_3_global = 1
int conga_equivalent_5_canonicalizer_equivalent_1_pair_stateless_alu_1_5_stateful_operand_mux_0_0_0_ctrl = 5
int conga_equivalent_5_canonicalizer_equivalent_1_pair_stateless_alu_1_5_stateful_alu_0_0_const_17_global = 3
int conga_equivalent_5_canonicalizer_equivalent_1_pair_stateless_alu_1_5_stateful_alu_0_0_const_13_global = 1
int conga_equivalent_5_canonicalizer_equivalent_1_pair_stateless_alu_1_5_stateful_alu_0_0_const_18_global = 5
int conga_equivalent_5_canonicalizer_equivalent_1_pair_stateless_alu_1_5_stateless_alu_0_2_opcode = 2
int conga_equivalent_5_canonicalizer_equivalent_1_pair_stateless_alu_1_5_stateful_alu_0_0_const_3_global = 0
int conga_equivalent_5_canonicalizer_equivalent_1_pair_stateless_alu_1_5_stateless_alu_0_2_mux3_ctrl = 0
int conga_equivalent_5_canonicalizer_equivalent_1_pair_stateless_alu_1_5_stateful_alu_0_0_Mux3_5_global = 0
int conga_equivalent_5_canonicalizer_equivalent_1_pair_stateless_alu_1_5_stateless_alu_0_1_mux1_ctrl = 0
int conga_equivalent_5_canonicalizer_equivalent_1_pair_stateless_alu_1_5_stateful_alu_0_0_const_6_global = 0
int conga_equivalent_5_canonicalizer_equivalent_1_pair_stateless_alu_1_5_stateless_alu_0_0_mux3_ctrl = 2
int conga_equivalent_5_canonicalizer_equivalent_1_pair_stateless_alu_1_5_stateful_alu_0_0_arith_op_7_global = 0
int conga_equivalent_5_canonicalizer_equivalent_1_pair_stateless_alu_1_5_stateful_alu_0_0_Mux3_12_global = 2
int conga_equivalent_5_canonicalizer_equivalent_1_pair_stateless_alu_1_5_stateful_alu_0_0_Opt_6_global = 1
int conga_equivalent_5_canonicalizer_equivalent_1_pair_stateless_alu_1_5_stateful_alu_0_0_const_5_global = 0
int conga_equivalent_5_canonicalizer_equivalent_1_pair_stateless_alu_1_5_stateful_alu_0_0_Mux3_6_global = 2
int conga_equivalent_5_canonicalizer_equivalent_1_pair_stateless_alu_1_5_stateful_alu_0_0_rel_op_3_global = 3
int conga_equivalent_5_canonicalizer_equivalent_1_pair_stateless_alu_1_5_stateless_alu_0_1_opcode = 2
int conga_equivalent_5_canonicalizer_equivalent_1_pair_stateless_alu_1_5_stateful_operand_mux_0_0_3_ctrl = 0
int conga_equivalent_5_canonicalizer_equivalent_1_pair_stateless_alu_1_5_stateful_alu_0_0_Mux3_17_global = 2
int conga_equivalent_5_canonicalizer_equivalent_1_pair_stateless_alu_1_5_stateful_alu_0_0_Mux3_11_global = 1
int conga_equivalent_5_canonicalizer_equivalent_1_pair_stateless_alu_1_5_stateful_alu_0_0_arith_op_6_global = 0
int conga_equivalent_5_canonicalizer_equivalent_1_pair_stateless_alu_1_5_stateless_alu_0_0_opcode = 2
int conga_equivalent_5_canonicalizer_equivalent_1_pair_stateless_alu_1_5_stateful_alu_0_0_Mux3_25_global = 1
int conga_equivalent_5_canonicalizer_equivalent_1_pair_stateless_alu_1_5_stateful_alu_0_0_const_15_global = 0
int conga_equivalent_5_canonicalizer_equivalent_1_pair_stateless_alu_1_5_output_mux_phv_0_0_ctrl = 2
Output left in conga_equivalent_5_canonicalizer_equivalent_1_pair_stateless_alu_1_5.success